
  14    0


   0   9 2 3 4 5 6 10 11 12 13 
   9   2 9 7 
  10   1 8 
   5   1 8 
   3   1 7 
  10   1 7 
   2   1 14
   1   1 14
   2   1 14
   3   1 14
   3   1 14
   8   1 14
   4   1 14
   0   0 
